data/solutions/recovery/degenerate/intermediate/binding/degenerate_intermediate_instance23/30.sol
Elapsed time: 0.06
Upper bound: 232201808.0
Planning weighted value: 8.90749674656e+11
C[0]=232201808.0
C[1]=231676349.0
C[2]=230296681.0
C[3]=227987993.0
C[4]=227781490.0
C[5]=227207626.0
C[6]=227134155.0
C[7]=224506050.0
C[8]=221411825.0
C[9]=216736527.0
C[10]=215465396.0
C[11]=0.0
y[0]=1
y[1]=5
y[2]=10
y[3]=3
y[4]=3
y[5]=3
y[6]=5
y[7]=0
y[8]=8
y[9]=2
y[10]=9
y[11]=4
y[12]=0
y[13]=1
y[14]=6
y[15]=8
y[16]=7
y[17]=7
y[18]=8
y[19]=10
y[20]=2
y[21]=7
y[22]=7
y[23]=8
y[24]=2
y[25]=2
y[26]=10
y[27]=0
y[28]=8
y[29]=1
y[30]=6
y[31]=7
y[32]=1
y[33]=7
y[34]=8
y[35]=6
y[36]=0
y[37]=5
y[38]=4
y[39]=9
y[40]=0
y[41]=5
y[42]=1
y[43]=5
y[44]=3
y[45]=10
y[46]=5
y[47]=1
y[48]=3
y[49]=7
y[50]=9
y[51]=10
y[52]=2
y[53]=8
y[54]=9
y[55]=7
y[56]=6
y[57]=3
y[58]=6
y[59]=7
y[60]=4
y[61]=0
y[62]=9
y[63]=9
y[64]=4
y[65]=6
y[66]=1
y[67]=3
y[68]=4
y[69]=0
y[70]=7
y[71]=1
y[72]=5
y[73]=10
y[74]=10
y[75]=3
y[76]=2
y[77]=2
