data/solutions/recovery/degenerate/intermediate/binding/degenerate_intermediate_instance23/30.log

Log started (V12.6.3.0) Sun Apr 22 12:29:30 2018

New value for default parallel thread count: 1

Problem '/tmp/tmp8wVFJW.pyomo.lp' read.
Read time = 0.01 sec. (0.83 ticks)

Problem name         : /tmp/tmp8wVFJW.pyomo.lp
Objective sense      : Minimize
Variables            :     950  [Nneg: 1,  Binary: 936,  General Integer: 13]
Objective nonzeros   :       1
Linear constraints   :     182  [Less: 90,  Equal: 92]
  Nonzeros           :   59401
  RHS nonzeros       :      79

Variables            : Min LB: 0.000000         Max UB: 1.000000       
Objective nonzeros   : Min   : 1.000000         Max   : 1.000000       
Linear constraints   :
  Nonzeros           : Min   : 1.000000         Max   : 6.145599e+07   
  RHS nonzeros       : Min   : 1.000000         Max   : 1.000000       
Tried aggregator 1 time.
MIP Presolve eliminated 151 rows and 839 columns.
Reduced MIP has 31 rows, 111 columns, and 231 nonzeros.
Reduced MIP has 99 binaries, 12 generals, 0 SOSs, and 0 indicators.
Presolve time = 0.00 sec. (3.58 ticks)
Found incumbent of value 4.1783581e+08 after 0.00 sec. (5.04 ticks)
Probing time = 0.00 sec. (0.32 ticks)
Tried aggregator 1 time.
Reduced MIP has 31 rows, 111 columns, and 231 nonzeros.
Reduced MIP has 99 binaries, 12 generals, 0 SOSs, and 0 indicators.
Presolve time = 0.00 sec. (0.18 ticks)
Probing time = 0.00 sec. (0.32 ticks)
Clique table members: 9.
MIP emphasis: balance optimality and feasibility.
MIP search method: dynamic search.
Parallel mode: none, using 1 thread.
Root relaxation solution time = 0.00 sec. (0.19 ticks)

        Nodes                                         Cuts/
   Node  Left     Objective  IInf  Best Integer    Best Bound    ItCnt     Gap

*     0+    0                       4.17836e+08   2.27781e+08            45.49%
      0     0   2.27781e+08    13   4.17836e+08   2.27781e+08       45   45.49%
      0     0   2.28115e+08    29   4.17836e+08     Fract: 10       68   45.41%
      0     0   2.28147e+08    29   4.17836e+08      Fract: 1       73   45.40%
*     0+    0                       2.43868e+08   2.28147e+08             6.45%

Repeating presolve.
Tried aggregator 2 times.
MIP Presolve eliminated 0 rows and 36 columns.
MIP Presolve modified 2 coefficients.
Aggregator did 1 substitutions.
Reduced MIP has 30 rows, 74 columns, and 157 nonzeros.
Reduced MIP has 63 binaries, 11 generals, 0 SOSs, and 0 indicators.
Presolve time = 0.00 sec. (0.15 ticks)
Probing fixed 0 vars, tightened 1 bounds.
Probing time = 0.00 sec. (0.08 ticks)
Tried aggregator 1 time.
Reduced MIP has 30 rows, 74 columns, and 157 nonzeros.
Reduced MIP has 63 binaries, 11 generals, 0 SOSs, and 0 indicators.
Presolve time = 0.00 sec. (0.11 ticks)
Represolve time = 0.00 sec. (0.46 ticks)
Probing time = 0.00 sec. (0.08 ticks)
Clique table members: 26.
MIP emphasis: balance optimality and feasibility.
MIP search method: dynamic search.
Parallel mode: none, using 1 thread.
Root relaxation solution time = 0.00 sec. (0.21 ticks)

        Nodes                                         Cuts/
   Node  Left     Objective  IInf  Best Integer    Best Bound    ItCnt     Gap

*     0+    0                       2.43868e+08   2.28147e+08             6.45%
      0     0   2.28164e+08    27   2.43868e+08   2.28164e+08      131    6.44%
      0     0   2.28164e+08    28   2.43868e+08       Cuts: 4      140    6.44%
      0     0   2.28166e+08    29   2.43868e+08       Cuts: 2      149    6.44%
*     0+    0                       2.37858e+08   2.28166e+08             4.07%
      0     2   2.28192e+08    27   2.37858e+08   2.28192e+08      151    4.06%
Elapsed time = 0.02 sec. (13.96 ticks, tree = 0.01 MB, solutions = 3)
*    30+   30                       2.32579e+08   2.28192e+08             1.89%
*   752   185      integral     0   2.32202e+08   2.28192e+08      198    1.73%

Cover cuts applied:  2
Implied bound cuts applied:  4
Gomory fractional cuts applied:  4

Root node processing (before b&c):
  Real time             =    0.02 sec. (14.00 ticks)
Sequential b&c:
  Real time             =    0.01 sec. (10.34 ticks)
                          ------------
Total (root+branch&cut) =    0.03 sec. (24.34 ticks)

Solution pool: 5 solutions saved.

MIP - Integer optimal solution:  Objective =  2.3220180800e+08
Solution time =    0.03 sec.  Iterations = 223  Nodes = 946
Deterministic time = 24.34 ticks  (742.61 ticks/sec)


Incumbent solution written to file '/tmp/tmpGxIrtt.cplex.sol'.
